0 2013
1 1966
2 1966
3 1920
4 1843
5 1843
6 1843
7 1804
8 1787
9 1747
10 1747
11 1723
12 1697
13 1597
14 1597
15 1597
16 1597
17 1597
18 1553
19 1553
20 1553
21 1553
22 1474
23 1474
24 1474
25 1474
26 1439
27 1439
28 1439
29 1439
30 1418
31 1362
32 1362
33 1362
34 1350
35 1350
36 1350
37 1350
38 1350
39 1350
40 1327
41 1327
42 1312
43 1312
44 1312
45 1312
46 1312
47 1290
48 1290
49 1290
50 1290
51 1290
52 1284
53 1278
54 1243
55 1243
56 1243
57 1233
58 1233
59 1233
60 1233
61 1217
62 1217
63 1217
64 1217
65 1187
66 1187
67 1186
68 1186
69 1186
70 1186
71 1186
72 1186
73 1184
74 1184
75 1184
76 1184
77 1184
78 1184
79 1184
80 1184
81 1182
82 1182
83 1146
84 1146
85 1146
86 1146
87 1144
88 1144
89 1144
90 1144
91 1144
92 1144
93 1144
94 1144
95 1144
96 1134
97 1134
98 1134
99 1134
100 1134
101 1134
102 1134
103 1134
104 1099
105 1099
106 1099
107 1099
108 1099
109 1099
110 1099
111 1099
112 1099
113 1099
114 1099
115 1099
116 1099
117 1063
118 1063
119 1063
120 1063
121 1063
122 1063
123 1063
124 1063
125 1063
126 1063
127 1063
128 1063
129 1063
130 1063
131 1063
132 1063
133 1063
134 1063
135 1049
136 1049
137 1049
138 1049
139 1049
140 1049
141 1049
142 1049
143 1049
144 1049
145 1049
146 1049
147 1049
148 1049
149 1049
150 1049
151 1010
152 1010
153 1010
154 1010
155 1010
156 1010
157 1010
158 1010
159 1010
160 1004
161 1004
162 1004
163 1004
164 1004
165 1004
166 1004
167 1004
168 988
169 988
170 988
171 988
172 988
173 988
174 988
175 988
176 988
177 988
178 969
179 969
180 969
181 969
182 969
183 969
184 969
185 969
186 969
187 969
188 969
189 969
190 969
191 969
192 969
193 969
194 942
195 942
196 942
197 942
198 942
199 942
200 942
201 942
202 942
203 942
204 942
205 942
206 942
207 942
208 942
209 942
210 941
211 941
212 941
213 941
214 941
215 941
216 941
217 941
218 941
219 941
220 941
221 941
222 941
223 934
224 934
225 934
226 934
227 934
228 934
229 934
230 921
231 921
232 921
233 921
234 921
235 921
236 918
237 918
238 917
239 917
240 917
241 917
242 908
243 908
244 908
245 908
246 908
247 908
248 906
249 898
250 898
251 898
252 898
253 898
254 898
255 898
256 898
257 898
258 898
259 898
260 896
261 896
262 891
263 891
264 891
265 891
266 891
267 891
268 891
269 891
270 891
271 891
272 891
273 891
274 891
275 891
276 891
277 891
278 891
279 891
280 891
281 891
282 888
283 888
284 888
285 888
286 888
287 888
288 888
289 883
290 883
291 883
292 883
293 867
294 867
295 867
296 867
297 867
298 867
299 867
300 867
301 867
302 867
303 867
304 867
305 867
306 867
307 867
308 867
309 867
310 867
311 867
312 867
313 867
314 867
315 867
316 867
317 867
318 867
319 867
320 867
321 867
322 867
323 867
324 867
325 867
326 867
327 867
328 867
329 863
330 863
331 863
332 863
333 863
334 863
335 863
336 863
337 863
338 863
339 863
340 863
341 863
342 863
343 863
344 863
345 861
346 861
347 861
348 861
349 861
350 861
351 861
352 859
353 859
354 859
355 859
356 857
357 857
358 857
359 857
360 857
361 857
362 857
363 857
364 857
365 857
366 854
367 854
368 854
369 854
370 854
371 854
372 854
373 854
374 850
375 850
376 850
377 850
378 850
379 850
380 850
381 850
382 850
383 850
384 850
385 850
386 850
387 850
388 850
389 850
390 850
391 850
392 850
393 850
394 850
395 850
396 850
397 850
398 850
399 850
400 850
401 850
402 850
403 850
404 850
405 850
406 850
407 849
408 849
409 849
410 849
411 849
412 849
413 849
414 849
415 849
416 849
417 849
418 849
419 849
420 849
421 849
422 849
423 849
424 849
425 849
426 849
427 849
428 849
429 849
430 849
431 849
432 849
433 849
434 849
435 849
436 849
437 849
438 849
439 849
440 849
441 849
442 849
443 849
444 847
445 843
446 843
447 843
448 843
449 843
450 843
451 843
452 843
453 843
454 843
455 843
456 842
457 842
458 842
459 842
460 842
461 842
462 842
463 842
464 842
465 842
466 842
467 842
468 842
469 842
470 842
471 842
472 842
473 842
474 842
475 842
476 842
477 842
478 842
479 842
480 842
481 842
482 842
483 842
484 842
485 842
486 842
487 842
488 842
489 842
490 842
491 842
492 842
493 842
494 842
495 842
496 838
497 838
498 838
499 838
500 838
501 838
502 838
503 838
504 838
505 838
506 838
507 838
508 838
509 838
510 838
511 838
512 838
513 838
514 838
515 838
516 838
517 838
518 838
519 838
520 838
521 836
522 836
523 836
524 836
525 836
526 836
527 836
528 836
529 836
530 836
531 836
532 836
533 836
534 836
535 836
536 836
537 836
538 836
539 836
540 836
541 836
542 836
543 836
544 836
545 836
546 836
547 836
548 836
549 836
550 836
551 836
552 836
553 836
554 836
555 836
556 836
557 836
558 836
559 836
560 836
561 836
562 836
563 836
564 836
565 836
566 836
567 836
568 836
569 836
570 836
571 836
572 836
573 836
574 836
575 836
576 836
577 836
578 836
579 836
580 836
581 836
582 836
583 836
584 834
585 834
586 834
587 834
588 834
589 834
590 834
591 834
592 834
593 834
594 834
595 834
596 834
597 834
598 834
599 834
600 834
601 834
602 834
603 834
604 834
605 834
606 834
607 834
608 834
609 834
610 834
611 834
612 834
613 834
614 834
615 834
616 834
617 834
618 834
619 834
620 834
621 834
622 834
623 834
624 834
625 834
626 834
627 834
628 834
629 834
630 834
631 834
632 834
633 834
634 834
635 834
636 834
637 834
638 834
639 834
640 834
641 834
642 834
643 834
644 834
645 834
646 834
647 834
648 834
649 834
650 834
651 834
652 834
653 834
654 834
655 834
656 834
657 834
658 834
659 834
660 834
661 834
662 834
663 834
664 834
665 834
666 834
667 834
668 834
669 834
670 834
671 834
672 834
673 834
674 834
675 834
676 834
677 834
678 834
679 834
680 834
681 834
682 834
683 834
684 834
685 834
686 834
687 834
688 834
689 834
690 834
691 834
692 834
693 834
694 834
695 834
696 834
697 834
698 834
699 834
700 834
701 834
702 834
703 834
704 834
705 834
706 834
707 834
708 834
709 834
710 834
711 834
712 834
713 834
714 834
715 834
716 834
717 834
718 834
719 834
720 834
721 834
722 834
723 834
724 834
725 834
726 834
727 834
728 834
729 834
730 834
731 834
732 834
733 834
734 834
735 834
736 834
737 834
738 834
739 834
740 834
741 834
742 834
743 834
744 834
745 834
746 834
747 834
748 834
749 834
750 834
751 834
752 834
753 834
754 834
755 834
756 834
757 834
758 834
759 834
760 834
761 834
762 834
763 834
764 834
765 834
766 834
767 834
768 834
769 834
770 834
771 834
772 834
773 834
774 834
775 834
776 834
777 834
778 834
779 834
780 834
781 834
782 834
783 834
784 834
785 834
786 834
787 834
788 834
789 834
790 834
791 834
792 834
793 834
794 834
795 834
796 834
797 834
798 834
799 834
800 834
801 834
802 834
803 834
804 834
805 834
806 834
807 834
808 834
809 834
810 834
811 834
812 834
813 834
814 834
815 834
816 834
817 834
818 834
819 834
820 834
821 834
822 834
823 834
824 834
825 834
826 834
827 834
828 834
829 834
830 834
831 834
832 834
833 834
834 834
835 834
836 834
837 834
838 834
839 834
840 834
841 834
842 834
843 834
844 834
845 834
846 834
847 834
848 834
849 834
850 834
851 834
852 834
853 834
854 834
855 834
856 834
857 834
858 834
859 834
860 834
861 834
862 834
863 834
864 834
865 834
866 834
867 834
868 834
869 834
870 834
871 834
872 834
873 834
874 834
875 834
876 834
877 834
878 834
879 834
880 834
881 834
882 834
883 834
884 834
885 834
886 834
887 834
888 834
889 834
890 834
891 834
892 834
893 834
894 834
895 834
896 834
897 834
898 834
899 834
900 834
901 834
902 834
903 834
904 834
905 834
906 834
907 834
908 834
909 834
910 834
911 834
912 834
913 834
914 834
915 834
916 834
917 834
918 834
919 834
920 834
921 834
922 834
923 834
924 834
925 834
926 834
927 834
928 834
929 834
930 834
931 834
932 834
933 834
934 834
935 834
936 834
937 834
938 834
939 834
940 834
941 834
942 834
943 834
944 834
945 834
946 834
947 834
948 834
949 834
950 834
951 834
952 834
953 834
954 834
955 834
956 834
957 834
958 834
959 834
960 834
961 834
962 834
963 834
964 834
965 834
966 834
967 834
968 834
969 834
970 834
971 834
972 834
973 834
974 834
975 834
976 834
977 834
978 834
979 834
980 834
981 834
982 834
983 834
984 834
985 834
986 834
987 834
988 834
989 834
990 834
991 834
992 834
993 834
994 834
995 834
996 834
997 834
998 834
999 834
Best: [[30,16,23,10,12,5,29,9,19],
       [27,8,14,18,20,32,22],
       [13,2,17,31],
       [7,4,3,24,15,25],
       [28,11,26,6,21]], fitness: 834
